multiobj/instances/reallike/Ter-rl-5-2--0.80-1.0-1.in
5 2
0 123 17 72 89 
123 0 116 51 121 
17 116 0 64 101 
72 51 64 0 97 
89 121 101 97 0 
0 0 0 27805 1 
0 0 24573 46564 14549 
0 24573 0 0 0 
27805 46564 0 0 0 
1 14549 0 0 0 
0 16 30 0 1 
16 0 0 0 0 
30 0 0 4 1 
0 0 4 0 0 
1 0 1 0 0 
