multiobj/solutions/reallike/Ter-rl-5-2--0.80-1.0-1.out
10 2
0 3 1 2 4 
12234692 11032 
2 3 1 0 4 
12979740 10436 
4 2 3 0 1 
13053420 9972 
3 0 4 2 1 
13095366 9276 
0 3 4 2 1 
13156968 8940 
3 0 1 2 4 
13777090 6728 
3 2 1 0 4 
14227124 6528 
0 3 2 1 4 
17557586 4632 
2 3 0 1 4 
17561508 4432 
2 3 0 4 1 
19672768 4258 
